r = [
0,122,191,16,104,172,56,26,144,117,75,79,124,135,160,32,54,96,120,40,145,68,38,90,158,149,0
];
p = [
0,30,8,30,25,3,24,18,2,25,29,1,9,13,17,20,6,23,11,9,14,28,3,14,4,19,0
];
e = [
0,18,13,18,13,15,9,8,16,5,12,18,16,1,20,8,8,12,15,1,19,4,1,3,11,18,0
];
d = [
0,267,314,155,248,435,166,165,279,226,205,366,282,359,360,182,285,206,286,290,387,183,301,266,285,432,442
];
d_bar = [
0,282,318,170,261,437,178,174,280,239,220,367,287,366,369,192,288,218,292,295,394,197,303,273,287,442,442
];
w = [
0,1.2,3.25,1.2,1,7.5,0.75,0.888888889,16,0.384615385,0.8,18,3.2,0.142857143,2.222222222,0.8,2.666666667,1,2.5,0.2,2.714285714,0.285714286,0.5,0.428571429,5.5,1.8,0
];
